c Sudoku solution
p cnf 729 0
119 0
188 0
253 0
266 0
311 0
372 0
454 0
468 0
477 0
531 0
546 0
562 0
584 0
598 0
613 0
573 0
443 0
657 0
726 0
416 0
739 0
842 0
152 0
876 0
956 0
887 0
917 0
515 0
432 0
429 0
527 0
559 0
928 0
821 0
712 0
814 0
858 0
778 0
222 0
218 0
624 0
638 0
348 0
355 0
323 0
125 0
193 0
136 0
751 0
994 0
982 0
971 0
783 0
795 0
899 0
174 0
692 0
686 0
679 0
275 0
485 0
491 0
281 0
389 0
396 0
297 0
234 0
337 0
364 0
249 0
744 0
767 0
147 0
161 0
641 0
665 0
945 0
863 0
969 0
835 0
933 0
